set PRODUCTS = golden amber;
set RESOURCES = malt yeast hops;

param price := golden 6 amber 5;

param avail := malt 50 hops 80 yeast 30;

param use :  golden  amber :=
   malt        3      2
   hops        2      4
   yeast       2      1;
